name="r22";
nr_vertices=285;
nr_edges=3684;
neighborhoods=[{1,2,3,4,5,6,7,8,9,10,11,12,13,14,15,16,27,43,57,70,80,115,127,142,153,213,227,243,257,268},{0,2,3,4,5,6,7,8,9,10,11,12,13,14,15,17,28,71,91,116,143,155,166,181,196,229,245,270},{0,1,3,4,5,6,7,8,9,10,11,12,13,14,15,30,45,58,81,92,104,130,156,167,197,215,259,272},{0,1,2,4,5,6,7,8,9,10,11,12,13,14,15,19,32,48,60,73,83,95,107,118,131,159,170,184,200,217,262},{0,1,2,3,5,6,7,8,9,10,11,12,13,14,15,33,49,74,84,96,119,132,145,171,185,263,275},{0,1,2,3,4,6,7,8,9,10,11,12,13,14,15,20,34,85,97,120,133,146,160,172,201,218,233,247,276},{0,1,2,3,4,5,7,8,9,10,11,12,13,14,15,21,35,75,86,98,108,121,134,186,202,234,248},{0,1,2,3,4,5,6,8,9,10,11,12,13,14,15,22,50,61,76,87,122,135,147,173,187,203,235,264},{0,1,2,3,4,5,6,7,9,10,11,12,13,14,15,36,51,62,99,109,123,148,174,204,219,236,249,277},{0,1,2,3,4,5,6,7,8,10,11,12,13,14,15,23,52,63,110,136,175,188,205,220,237,250,278},{0,1,2,3,4,5,6,7,8,9,11,12,13,14,15,37,53,64,124,137,206,238,251,279},{0,1,2,3,4,5,6,7,8,9,10,12,13,14,15,24,38,54,65,88,100,111,138,149,161,189,207,221,239,252,265,280},{0,1,2,3,4,5,6,7,8,9,10,11,13,14,15,25,56,67,77,112,140,162,177,191,209,223,254,267},{0,1,2,3,4,5,6,7,8,9,10,11,12,14,15,26,40,113,151,178,192,210,224,241,255,282},{0,1,2,3,4,5,6,7,8,9,10,11,12,13,15,41,68,78,89,114,126,152,163,193,211,225,283},{0,1,2,3,4,5,6,7,8,9,10,11,12,13,14,42,69,79,90,102,141,164,179,194,212,226,242,256,284},{0,17,18,19,20,21,22,23,24,25,26,27,43,57,70,80,115,127,142,153,213,227,243,257,268},{1,16,18,19,20,21,22,23,24,25,26,28,71,91,116,143,155,166,181,196,229,245,270},{16,17,19,20,21,22,23,24,25,26,47,59,82,94,106,158,169,183,199,232,246,261,274},{3,16,17,18,20,21,22,23,24,25,26,32,48,60,73,83,95,107,118,131,159,170,184,200,217,262},{5,16,17,18,19,21,22,23,24,25,26,34,85,97,120,133,146,160,172,201,218,233,247,276},{6,16,17,18,19,20,22,23,24,25,26,35,75,86,98,108,121,134,186,202,234,248},{7,16,17,18,19,20,21,23,24,25,26,50,61,76,87,122,135,147,173,187,203,235,264},{9,16,17,18,19,20,21,22,24,25,26,52,63,110,136,175,188,205,220,237,250,278},{11,16,17,18,19,20,21,22,23,25,26,38,54,65,88,100,111,138,149,161,189,207,221,239,252,265,280},{12,16,17,18,19,20,21,22,23,24,26,56,67,77,112,140,162,177,191,209,223,254,267},{13,16,17,18,19,20,21,22,23,24,25,40,113,151,178,192,210,224,241,255,282},{0,16,28,29,30,31,32,33,34,35,36,37,38,39,40,41,42,43,57,70,80,115,127,142,153,213,227,243,257,268},{1,17,27,29,30,31,32,33,34,35,36,37,38,39,40,41,42,71,91,116,143,155,166,181,196,229,245,270},{27,28,30,31,32,33,34,35,36,37,38,39,40,41,42,72,103,117,129,182,214,230,271},{2,27,28,29,31,32,33,34,35,36,37,38,39,40,41,42,45,58,81,92,104,130,156,167,197,215,259,272},{27,28,29,30,32,33,34,35,36,37,38,39,40,41,42,46,93,105,144,157,168,198,216,231,260,273},{3,19,27,28,29,30,31,33,34,35,36,37,38,39,40,41,42,48,60,73,83,95,107,118,131,159,170,184,200,217,262},{4,27,28,29,30,31,32,34,35,36,37,38,39,40,41,42,49,74,84,96,119,132,145,171,185,263,275},{5,20,27,28,29,30,31,32,33,35,36,37,38,39,40,41,42,85,97,120,133,146,160,172,201,218,233,247,276},{6,21,27,28,29,30,31,32,33,34,36,37,38,39,40,41,42,75,86,98,108,121,134,186,202,234,248},{8,27,28,29,30,31,32,33,34,35,37,38,39,40,41,42,51,62,99,109,123,148,174,204,219,236,249,277},{10,27,28,29,30,31,32,33,34,35,36,38,39,40,41,42,53,64,124,137,206,238,251,279},{11,24,27,28,29,30,31,32,33,34,35,36,37,39,40,41,42,54,65,88,100,111,138,149,161,189,207,221,239,252,265,280},{27,28,29,30,31,32,33,34,35,36,37,38,40,41,42,55,66,101,125,139,150,176,190,208,222,240,253,266,281},{13,26,27,28,29,30,31,32,33,34,35,36,37,38,39,41,42,113,151,178,192,210,224,241,255,282},{14,27,28,29,30,31,32,33,34,35,36,37,38,39,40,42,68,78,89,114,126,152,163,193,211,225,283},{15,27,28,29,30,31,32,33,34,35,36,37,38,39,40,41,69,79,90,102,141,164,179,194,212,226,242,256,284},{0,16,27,44,45,46,47,48,49,50,51,52,53,54,55,56,57,70,80,115,127,142,153,213,227,243,257,268},{43,45,46,47,48,49,50,51,52,53,54,55,56,128,154,165,180,195,228,244,258,269},{2,30,43,44,46,47,48,49,50,51,52,53,54,55,56,58,81,92,104,130,156,167,197,215,259,272},{31,43,44,45,47,48,49,50,51,52,53,54,55,56,93,105,144,157,168,198,216,231,260,273},{18,43,44,45,46,48,49,50,51,52,53,54,55,56,59,82,94,106,158,169,183,199,232,246,261,274},{3,19,32,43,44,45,46,47,49,50,51,52,53,54,55,56,60,73,83,95,107,118,131,159,170,184,200,217,262},{4,33,43,44,45,46,47,48,50,51,52,53,54,55,56,74,84,96,119,132,145,171,185,263,275},{7,22,43,44,45,46,47,48,49,51,52,53,54,55,56,61,76,87,122,135,147,173,187,203,235,264},{8,36,43,44,45,46,47,48,49,50,52,53,54,55,56,62,99,109,123,148,174,204,219,236,249,277},{9,23,43,44,45,46,47,48,49,50,51,53,54,55,56,63,110,136,175,188,205,220,237,250,278},{10,37,43,44,45,46,47,48,49,50,51,52,54,55,56,64,124,137,206,238,251,279},{11,24,38,43,44,45,46,47,48,49,50,51,52,53,55,56,65,88,100,111,138,149,161,189,207,221,239,252,265,280},{39,43,44,45,46,47,48,49,50,51,52,53,54,56,66,101,125,139,150,176,190,208,222,240,253,266,281},{12,25,43,44,45,46,47,48,49,50,51,52,53,54,55,67,77,112,140,162,177,191,209,223,254,267},{0,16,27,43,58,59,60,61,62,63,64,65,66,67,68,69,70,80,115,127,142,153,213,227,243,257,268},{2,30,45,57,59,60,61,62,63,64,65,66,67,68,69,81,92,104,130,156,167,197,215,259,272},{18,47,57,58,60,61,62,63,64,65,66,67,68,69,82,94,106,158,169,183,199,232,246,261,274},{3,19,32,48,57,58,59,61,62,63,64,65,66,67,68,69,73,83,95,107,118,131,159,170,184,200,217,262},{7,22,50,57,58,59,60,62,63,64,65,66,67,68,69,76,87,122,135,147,173,187,203,235,264},{8,36,51,57,58,59,60,61,63,64,65,66,67,68,69,99,109,123,148,174,204,219,236,249,277},{9,23,52,57,58,59,60,61,62,64,65,66,67,68,69,110,136,175,188,205,220,237,250,278},{10,37,53,57,58,59,60,61,62,63,65,66,67,68,69,124,137,206,238,251,279},{11,24,38,54,57,58,59,60,61,62,63,64,66,67,68,69,88,100,111,138,149,161,189,207,221,239,252,265,280},{39,55,57,58,59,60,61,62,63,64,65,67,68,69,101,125,139,150,176,190,208,222,240,253,266,281},{12,25,56,57,58,59,60,61,62,63,64,65,66,68,69,77,112,140,162,177,191,209,223,254,267},{14,41,57,58,59,60,61,62,63,64,65,66,67,69,78,89,114,126,152,163,193,211,225,283},{15,42,57,58,59,60,61,62,63,64,65,66,67,68,79,90,102,141,164,179,194,212,226,242,256,284},{0,16,27,43,57,71,72,73,74,75,76,77,78,79,80,115,127,142,153,213,227,243,257,268},{1,17,28,70,72,73,74,75,76,77,78,79,91,116,143,155,166,181,196,229,245,270},{29,70,71,73,74,75,76,77,78,79,103,117,129,182,214,230,271},{3,19,32,48,60,70,71,72,74,75,76,77,78,79,83,95,107,118,131,159,170,184,200,217,262},{4,33,49,70,71,72,73,75,76,77,78,79,84,96,119,132,145,171,185,263,275},{6,21,35,70,71,72,73,74,76,77,78,79,86,98,108,121,134,186,202,234,248},{7,22,50,61,70,71,72,73,74,75,77,78,79,87,122,135,147,173,187,203,235,264},{12,25,56,67,70,71,72,73,74,75,76,78,79,112,140,162,177,191,209,223,254,267},{14,41,68,70,71,72,73,74,75,76,77,79,89,114,126,152,163,193,211,225,283},{15,42,69,70,71,72,73,74,75,76,77,78,90,102,141,164,179,194,212,226,242,256,284},{0,16,27,43,57,70,81,82,83,84,85,86,87,88,89,90,115,127,142,153,213,227,243,257,268},{2,30,45,58,80,82,83,84,85,86,87,88,89,90,92,104,130,156,167,197,215,259,272},{18,47,59,80,81,83,84,85,86,87,88,89,90,94,106,158,169,183,199,232,246,261,274},{3,19,32,48,60,73,80,81,82,84,85,86,87,88,89,90,95,107,118,131,159,170,184,200,217,262},{4,33,49,74,80,81,82,83,85,86,87,88,89,90,96,119,132,145,171,185,263,275},{5,20,34,80,81,82,83,84,86,87,88,89,90,97,120,133,146,160,172,201,218,233,247,276},{6,21,35,75,80,81,82,83,84,85,87,88,89,90,98,108,121,134,186,202,234,248},{7,22,50,61,76,80,81,82,83,84,85,86,88,89,90,122,135,147,173,187,203,235,264},{11,24,38,54,65,80,81,82,83,84,85,86,87,89,90,100,111,138,149,161,189,207,221,239,252,265,280},{14,41,68,78,80,81,82,83,84,85,86,87,88,90,114,126,152,163,193,211,225,283},{15,42,69,79,80,81,82,83,84,85,86,87,88,89,102,141,164,179,194,212,226,242,256,284},{1,17,28,71,92,93,94,95,96,97,98,99,100,101,102,116,143,155,166,181,196,229,245,270},{2,30,45,58,81,91,93,94,95,96,97,98,99,100,101,102,104,130,156,167,197,215,259,272},{31,46,91,92,94,95,96,97,98,99,100,101,102,105,144,157,168,198,216,231,260,273},{18,47,59,82,91,92,93,95,96,97,98,99,100,101,102,106,158,169,183,199,232,246,261,274},{3,19,32,48,60,73,83,91,92,93,94,96,97,98,99,100,101,102,107,118,131,159,170,184,200,217,262},{4,33,49,74,84,91,92,93,94,95,97,98,99,100,101,102,119,132,145,171,185,263,275},{5,20,34,85,91,92,93,94,95,96,98,99,100,101,102,120,133,146,160,172,201,218,233,247,276},{6,21,35,75,86,91,92,93,94,95,96,97,99,100,101,102,108,121,134,186,202,234,248},{8,36,51,62,91,92,93,94,95,96,97,98,100,101,102,109,123,148,174,204,219,236,249,277},{11,24,38,54,65,88,91,92,93,94,95,96,97,98,99,101,102,111,138,149,161,189,207,221,239,252,265,280},{39,55,66,91,92,93,94,95,96,97,98,99,100,102,125,139,150,176,190,208,222,240,253,266,281},{15,42,69,79,90,91,92,93,94,95,96,97,98,99,100,101,141,164,179,194,212,226,242,256,284},{29,72,104,105,106,107,108,109,110,111,112,113,114,117,129,182,214,230,271},{2,30,45,58,81,92,103,105,106,107,108,109,110,111,112,113,114,130,156,167,197,215,259,272},{31,46,93,103,104,106,107,108,109,110,111,112,113,114,144,157,168,198,216,231,260,273},{18,47,59,82,94,103,104,105,107,108,109,110,111,112,113,114,158,169,183,199,232,246,261,274},{3,19,32,48,60,73,83,95,103,104,105,106,108,109,110,111,112,113,114,118,131,159,170,184,200,217,262},{6,21,35,75,86,98,103,104,105,106,107,109,110,111,112,113,114,121,134,186,202,234,248},{8,36,51,62,99,103,104,105,106,107,108,110,111,112,113,114,123,148,174,204,219,236,249,277},{9,23,52,63,103,104,105,106,107,108,109,111,112,113,114,136,175,188,205,220,237,250,278},{11,24,38,54,65,88,100,103,104,105,106,107,108,109,110,112,113,114,138,149,161,189,207,221,239,252,265,280},{12,25,56,67,77,103,104,105,106,107,108,109,110,111,113,114,140,162,177,191,209,223,254,267},{13,26,40,103,104,105,106,107,108,109,110,111,112,114,151,178,192,210,224,241,255,282},{14,41,68,78,89,103,104,105,106,107,108,109,110,111,112,113,126,152,163,193,211,225,283},{0,16,27,43,57,70,80,116,117,118,119,120,121,122,123,124,125,126,127,142,153,213,227,243,257,268},{1,17,28,71,91,115,117,118,119,120,121,122,123,124,125,126,143,155,166,181,196,229,245,270},{29,72,103,115,116,118,119,120,121,122,123,124,125,126,129,182,214,230,271},{3,19,32,48,60,73,83,95,107,115,116,117,119,120,121,122,123,124,125,126,131,159,170,184,200,217,262},{4,33,49,74,84,96,115,116,117,118,120,121,122,123,124,125,126,132,145,171,185,263,275},{5,20,34,85,97,115,116,117,118,119,121,122,123,124,125,126,133,146,160,172,201,218,233,247,276},{6,21,35,75,86,98,108,115,116,117,118,119,120,122,123,124,125,126,134,186,202,234,248},{7,22,50,61,76,87,115,116,117,118,119,120,121,123,124,125,126,135,147,173,187,203,235,264},{8,36,51,62,99,109,115,116,117,118,119,120,121,122,124,125,126,148,174,204,219,236,249,277},{10,37,53,64,115,116,117,118,119,120,121,122,123,125,126,137,206,238,251,279},{39,55,66,101,115,116,117,118,119,120,121,122,123,124,126,139,150,176,190,208,222,240,253,266,281},{14,41,68,78,89,114,115,116,117,118,119,120,121,122,123,124,125,152,163,193,211,225,283},{0,16,27,43,57,70,80,115,128,129,130,131,132,133,134,135,136,137,138,139,140,141,142,153,213,227,243,257,268},{44,127,129,130,131,132,133,134,135,136,137,138,139,140,141,154,165,180,195,228,244,258,269},{29,72,103,117,127,128,130,131,132,133,134,135,136,137,138,139,140,141,182,214,230,271},{2,30,45,58,81,92,104,127,128,129,131,132,133,134,135,136,137,138,139,140,141,156,167,197,215,259,272},{3,19,32,48,60,73,83,95,107,118,127,128,129,130,132,133,134,135,136,137,138,139,140,141,159,170,184,200,217,262},{4,33,49,74,84,96,119,127,128,129,130,131,133,134,135,136,137,138,139,140,141,145,171,185,263,275},{5,20,34,85,97,120,127,128,129,130,131,132,134,135,136,137,138,139,140,141,146,160,172,201,218,233,247,276},{6,21,35,75,86,98,108,121,127,128,129,130,131,132,133,135,136,137,138,139,140,141,186,202,234,248},{7,22,50,61,76,87,122,127,128,129,130,131,132,133,134,136,137,138,139,140,141,147,173,187,203,235,264},{9,23,52,63,110,127,128,129,130,131,132,133,134,135,137,138,139,140,141,175,188,205,220,237,250,278},{10,37,53,64,124,127,128,129,130,131,132,133,134,135,136,138,139,140,141,206,238,251,279},{11,24,38,54,65,88,100,111,127,128,129,130,131,132,133,134,135,136,137,139,140,141,149,161,189,207,221,239,252,265,280},{39,55,66,101,125,127,128,129,130,131,132,133,134,135,136,137,138,140,141,150,176,190,208,222,240,253,266,281},{12,25,56,67,77,112,127,128,129,130,131,132,133,134,135,136,137,138,139,141,162,177,191,209,223,254,267},{15,42,69,79,90,102,127,128,129,130,131,132,133,134,135,136,137,138,139,140,164,179,194,212,226,242,256,284},{0,16,27,43,57,70,80,115,127,143,144,145,146,147,148,149,150,151,152,153,213,227,243,257,268},{1,17,28,71,91,116,142,144,145,146,147,148,149,150,151,152,155,166,181,196,229,245,270},{31,46,93,105,142,143,145,146,147,148,149,150,151,152,157,168,198,216,231,260,273},{4,33,49,74,84,96,119,132,142,143,144,146,147,148,149,150,151,152,171,185,263,275},{5,20,34,85,97,120,133,142,143,144,145,147,148,149,150,151,152,160,172,201,218,233,247,276},{7,22,50,61,76,87,122,135,142,143,144,145,146,148,149,150,151,152,173,187,203,235,264},{8,36,51,62,99,109,123,142,143,144,145,146,147,149,150,151,152,174,204,219,236,249,277},{11,24,38,54,65,88,100,111,138,142,143,144,145,146,147,148,150,151,152,161,189,207,221,239,252,265,280},{39,55,66,101,125,139,142,143,144,145,146,147,148,149,151,152,176,190,208,222,240,253,266,281},{13,26,40,113,142,143,144,145,146,147,148,149,150,152,178,192,210,224,241,255,282},{14,41,68,78,89,114,126,142,143,144,145,146,147,148,149,150,151,163,193,211,225,283},{0,16,27,43,57,70,80,115,127,142,154,155,156,157,158,159,160,161,162,163,164,213,227,243,257,268},{44,128,153,155,156,157,158,159,160,161,162,163,164,165,180,195,228,244,258,269},{1,17,28,71,91,116,143,153,154,156,157,158,159,160,161,162,163,164,166,181,196,229,245,270},{2,30,45,58,81,92,104,130,153,154,155,157,158,159,160,161,162,163,164,167,197,215,259,272},{31,46,93,105,144,153,154,155,156,158,159,160,161,162,163,164,168,198,216,231,260,273},{18,47,59,82,94,106,153,154,155,156,157,159,160,161,162,163,164,169,183,199,232,246,261,274},{3,19,32,48,60,73,83,95,107,118,131,153,154,155,156,157,158,160,161,162,163,164,170,184,200,217,262},{5,20,34,85,97,120,133,146,153,154,155,156,157,158,159,161,162,163,164,172,201,218,233,247,276},{11,24,38,54,65,88,100,111,138,149,153,154,155,156,157,158,159,160,162,163,164,189,207,221,239,252,265,280},{12,25,56,67,77,112,140,153,154,155,156,157,158,159,160,161,163,164,177,191,209,223,254,267},{14,41,68,78,89,114,126,152,153,154,155,156,157,158,159,160,161,162,164,193,211,225,283},{15,42,69,79,90,102,141,153,154,155,156,157,158,159,160,161,162,163,179,194,212,226,242,256,284},{44,128,154,166,167,168,169,170,171,172,173,174,175,176,177,178,179,180,195,228,244,258,269},{1,17,28,71,91,116,143,155,165,167,168,169,170,171,172,173,174,175,176,177,178,179,181,196,229,245,270},{2,30,45,58,81,92,104,130,156,165,166,168,169,170,171,172,173,174,175,176,177,178,179,197,215,259,272},{31,46,93,105,144,157,165,166,167,169,170,171,172,173,174,175,176,177,178,179,198,216,231,260,273},{18,47,59,82,94,106,158,165,166,167,168,170,171,172,173,174,175,176,177,178,179,183,199,232,246,261,274},{3,19,32,48,60,73,83,95,107,118,131,159,165,166,167,168,169,171,172,173,174,175,176,177,178,179,184,200,217,262},{4,33,49,74,84,96,119,132,145,165,166,167,168,169,170,172,173,174,175,176,177,178,179,185,263,275},{5,20,34,85,97,120,133,146,160,165,166,167,168,169,170,171,173,174,175,176,177,178,179,201,218,233,247,276},{7,22,50,61,76,87,122,135,147,165,166,167,168,169,170,171,172,174,175,176,177,178,179,187,203,235,264},{8,36,51,62,99,109,123,148,165,166,167,168,169,170,171,172,173,175,176,177,178,179,204,219,236,249,277},{9,23,52,63,110,136,165,166,167,168,169,170,171,172,173,174,176,177,178,179,188,205,220,237,250,278},{39,55,66,101,125,139,150,165,166,167,168,169,170,171,172,173,174,175,177,178,179,190,208,222,240,253,266,281},{12,25,56,67,77,112,140,162,165,166,167,168,169,170,171,172,173,174,175,176,178,179,191,209,223,254,267},{13,26,40,113,151,165,166,167,168,169,170,171,172,173,174,175,176,177,179,192,210,224,241,255,282},{15,42,69,79,90,102,141,164,165,166,167,168,169,170,171,172,173,174,175,176,177,178,194,212,226,242,256,284},{44,128,154,165,181,182,183,184,185,186,187,188,189,190,191,192,193,194,195,228,244,258,269},{1,17,28,71,91,116,143,155,166,180,182,183,184,185,186,187,188,189,190,191,192,193,194,196,229,245,270},{29,72,103,117,129,180,181,183,184,185,186,187,188,189,190,191,192,193,194,214,230,271},{18,47,59,82,94,106,158,169,180,181,182,184,185,186,187,188,189,190,191,192,193,194,199,232,246,261,274},{3,19,32,48,60,73,83,95,107,118,131,159,170,180,181,182,183,185,186,187,188,189,190,191,192,193,194,200,217,262},{4,33,49,74,84,96,119,132,145,171,180,181,182,183,184,186,187,188,189,190,191,192,193,194,263,275},{6,21,35,75,86,98,108,121,134,180,181,182,183,184,185,187,188,189,190,191,192,193,194,202,234,248},{7,22,50,61,76,87,122,135,147,173,180,181,182,183,184,185,186,188,189,190,191,192,193,194,203,235,264},{9,23,52,63,110,136,175,180,181,182,183,184,185,186,187,189,190,191,192,193,194,205,220,237,250,278},{11,24,38,54,65,88,100,111,138,149,161,180,181,182,183,184,185,186,187,188,190,191,192,193,194,207,221,239,252,265,280},{39,55,66,101,125,139,150,176,180,181,182,183,184,185,186,187,188,189,191,192,193,194,208,222,240,253,266,281},{12,25,56,67,77,112,140,162,177,180,181,182,183,184,185,186,187,188,189,190,192,193,194,209,223,254,267},{13,26,40,113,151,178,180,181,182,183,184,185,186,187,188,189,190,191,193,194,210,224,241,255,282},{14,41,68,78,89,114,126,152,163,180,181,182,183,184,185,186,187,188,189,190,191,192,194,211,225,283},{15,42,69,79,90,102,141,164,179,180,181,182,183,184,185,186,187,188,189,190,191,192,193,212,226,242,256,284},{44,128,154,165,180,196,197,198,199,200,201,202,203,204,205,206,207,208,209,210,211,212,228,244,258,269},{1,17,28,71,91,116,143,155,166,181,195,197,198,199,200,201,202,203,204,205,206,207,208,209,210,211,212,229,245,270},{2,30,45,58,81,92,104,130,156,167,195,196,198,199,200,201,202,203,204,205,206,207,208,209,210,211,212,215,259,272},{31,46,93,105,144,157,168,195,196,197,199,200,201,202,203,204,205,206,207,208,209,210,211,212,216,231,260,273},{18,47,59,82,94,106,158,169,183,195,196,197,198,200,201,202,203,204,205,206,207,208,209,210,211,212,232,246,261,274},{3,19,32,48,60,73,83,95,107,118,131,159,170,184,195,196,197,198,199,201,202,203,204,205,206,207,208,209,210,211,212,217,262},{5,20,34,85,97,120,133,146,160,172,195,196,197,198,199,200,202,203,204,205,206,207,208,209,210,211,212,218,233,247,276},{6,21,35,75,86,98,108,121,134,186,195,196,197,198,199,200,201,203,204,205,206,207,208,209,210,211,212,234,248},{7,22,50,61,76,87,122,135,147,173,187,195,196,197,198,199,200,201,202,204,205,206,207,208,209,210,211,212,235,264},{8,36,51,62,99,109,123,148,174,195,196,197,198,199,200,201,202,203,205,206,207,208,209,210,211,212,219,236,249,277},{9,23,52,63,110,136,175,188,195,196,197,198,199,200,201,202,203,204,206,207,208,209,210,211,212,220,237,250,278},{10,37,53,64,124,137,195,196,197,198,199,200,201,202,203,204,205,207,208,209,210,211,212,238,251,279},{11,24,38,54,65,88,100,111,138,149,161,189,195,196,197,198,199,200,201,202,203,204,205,206,208,209,210,211,212,221,239,252,265,280},{39,55,66,101,125,139,150,176,190,195,196,197,198,199,200,201,202,203,204,205,206,207,209,210,211,212,222,240,253,266,281},{12,25,56,67,77,112,140,162,177,191,195,196,197,198,199,200,201,202,203,204,205,206,207,208,210,211,212,223,254,267},{13,26,40,113,151,178,192,195,196,197,198,199,200,201,202,203,204,205,206,207,208,209,211,212,224,241,255,282},{14,41,68,78,89,114,126,152,163,193,195,196,197,198,199,200,201,202,203,204,205,206,207,208,209,210,212,225,283},{15,42,69,79,90,102,141,164,179,194,195,196,197,198,199,200,201,202,203,204,205,206,207,208,209,210,211,226,242,256,284},{0,16,27,43,57,70,80,115,127,142,153,214,215,216,217,218,219,220,221,222,223,224,225,226,227,243,257,268},{29,72,103,117,129,182,213,215,216,217,218,219,220,221,222,223,224,225,226,230,271},{2,30,45,58,81,92,104,130,156,167,197,213,214,216,217,218,219,220,221,222,223,224,225,226,259,272},{31,46,93,105,144,157,168,198,213,214,215,217,218,219,220,221,222,223,224,225,226,231,260,273},{3,19,32,48,60,73,83,95,107,118,131,159,170,184,200,213,214,215,216,218,219,220,221,222,223,224,225,226,262},{5,20,34,85,97,120,133,146,160,172,201,213,214,215,216,217,219,220,221,222,223,224,225,226,233,247,276},{8,36,51,62,99,109,123,148,174,204,213,214,215,216,217,218,220,221,222,223,224,225,226,236,249,277},{9,23,52,63,110,136,175,188,205,213,214,215,216,217,218,219,221,222,223,224,225,226,237,250,278},{11,24,38,54,65,88,100,111,138,149,161,189,207,213,214,215,216,217,218,219,220,222,223,224,225,226,239,252,265,280},{39,55,66,101,125,139,150,176,190,208,213,214,215,216,217,218,219,220,221,223,224,225,226,240,253,266,281},{12,25,56,67,77,112,140,162,177,191,209,213,214,215,216,217,218,219,220,221,222,224,225,226,254,267},{13,26,40,113,151,178,192,210,213,214,215,216,217,218,219,220,221,222,223,225,226,241,255,282},{14,41,68,78,89,114,126,152,163,193,211,213,214,215,216,217,218,219,220,221,222,223,224,226,283},{15,42,69,79,90,102,141,164,179,194,212,213,214,215,216,217,218,219,220,221,222,223,224,225,242,256,284},{0,16,27,43,57,70,80,115,127,142,153,213,228,229,230,231,232,233,234,235,236,237,238,239,240,241,242,243,257,268},{44,128,154,165,180,195,227,229,230,231,232,233,234,235,236,237,238,239,240,241,242,244,258,269},{1,17,28,71,91,116,143,155,166,181,196,227,228,230,231,232,233,234,235,236,237,238,239,240,241,242,245,270},{29,72,103,117,129,182,214,227,228,229,231,232,233,234,235,236,237,238,239,240,241,242,271},{31,46,93,105,144,157,168,198,216,227,228,229,230,232,233,234,235,236,237,238,239,240,241,242,260,273},{18,47,59,82,94,106,158,169,183,199,227,228,229,230,231,233,234,235,236,237,238,239,240,241,242,246,261,274},{5,20,34,85,97,120,133,146,160,172,201,218,227,228,229,230,231,232,234,235,236,237,238,239,240,241,242,247,276},{6,21,35,75,86,98,108,121,134,186,202,227,228,229,230,231,232,233,235,236,237,238,239,240,241,242,248},{7,22,50,61,76,87,122,135,147,173,187,203,227,228,229,230,231,232,233,234,236,237,238,239,240,241,242,264},{8,36,51,62,99,109,123,148,174,204,219,227,228,229,230,231,232,233,234,235,237,238,239,240,241,242,249,277},{9,23,52,63,110,136,175,188,205,220,227,228,229,230,231,232,233,234,235,236,238,239,240,241,242,250,278},{10,37,53,64,124,137,206,227,228,229,230,231,232,233,234,235,236,237,239,240,241,242,251,279},{11,24,38,54,65,88,100,111,138,149,161,189,207,221,227,228,229,230,231,232,233,234,235,236,237,238,240,241,242,252,265,280},{39,55,66,101,125,139,150,176,190,208,222,227,228,229,230,231,232,233,234,235,236,237,238,239,241,242,253,266,281},{13,26,40,113,151,178,192,210,224,227,228,229,230,231,232,233,234,235,236,237,238,239,240,242,255,282},{15,42,69,79,90,102,141,164,179,194,212,226,227,228,229,230,231,232,233,234,235,236,237,238,239,240,241,256,284},{0,16,27,43,57,70,80,115,127,142,153,213,227,244,245,246,247,248,249,250,251,252,253,254,255,256,257,268},{44,128,154,165,180,195,228,243,245,246,247,248,249,250,251,252,253,254,255,256,258,269},{1,17,28,71,91,116,143,155,166,181,196,229,243,244,246,247,248,249,250,251,252,253,254,255,256,270},{18,47,59,82,94,106,158,169,183,199,232,243,244,245,247,248,249,250,251,252,253,254,255,256,261,274},{5,20,34,85,97,120,133,146,160,172,201,218,233,243,244,245,246,248,249,250,251,252,253,254,255,256,276},{6,21,35,75,86,98,108,121,134,186,202,234,243,244,245,246,247,249,250,251,252,253,254,255,256},{8,36,51,62,99,109,123,148,174,204,219,236,243,244,245,246,247,248,250,251,252,253,254,255,256,277},{9,23,52,63,110,136,175,188,205,220,237,243,244,245,246,247,248,249,251,252,253,254,255,256,278},{10,37,53,64,124,137,206,238,243,244,245,246,247,248,249,250,252,253,254,255,256,279},{11,24,38,54,65,88,100,111,138,149,161,189,207,221,239,243,244,245,246,247,248,249,250,251,253,254,255,256,265,280},{39,55,66,101,125,139,150,176,190,208,222,240,243,244,245,246,247,248,249,250,251,252,254,255,256,266,281},{12,25,56,67,77,112,140,162,177,191,209,223,243,244,245,246,247,248,249,250,251,252,253,255,256,267},{13,26,40,113,151,178,192,210,224,241,243,244,245,246,247,248,249,250,251,252,253,254,256,282},{15,42,69,79,90,102,141,164,179,194,212,226,242,243,244,245,246,247,248,249,250,251,252,253,254,255,284},{0,16,27,43,57,70,80,115,127,142,153,213,227,243,258,259,260,261,262,263,264,265,266,267,268},{44,128,154,165,180,195,228,244,257,259,260,261,262,263,264,265,266,267,269},{2,30,45,58,81,92,104,130,156,167,197,215,257,258,260,261,262,263,264,265,266,267,272},{31,46,93,105,144,157,168,198,216,231,257,258,259,261,262,263,264,265,266,267,273},{18,47,59,82,94,106,158,169,183,199,232,246,257,258,259,260,262,263,264,265,266,267,274},{3,19,32,48,60,73,83,95,107,118,131,159,170,184,200,217,257,258,259,260,261,263,264,265,266,267},{4,33,49,74,84,96,119,132,145,171,185,257,258,259,260,261,262,264,265,266,267,275},{7,22,50,61,76,87,122,135,147,173,187,203,235,257,258,259,260,261,262,263,265,266,267},{11,24,38,54,65,88,100,111,138,149,161,189,207,221,239,252,257,258,259,260,261,262,263,264,266,267,280},{39,55,66,101,125,139,150,176,190,208,222,240,253,257,258,259,260,261,262,263,264,265,267,281},{12,25,56,67,77,112,140,162,177,191,209,223,254,257,258,259,260,261,262,263,264,265,266},{0,16,27,43,57,70,80,115,127,142,153,213,227,243,257,269,270,271,272,273,274,275,276,277,278,279,280,281,282,283,284},{44,128,154,165,180,195,228,244,258,268,270,271,272,273,274,275,276,277,278,279,280,281,282,283,284},{1,17,28,71,91,116,143,155,166,181,196,229,245,268,269,271,272,273,274,275,276,277,278,279,280,281,282,283,284},{29,72,103,117,129,182,214,230,268,269,270,272,273,274,275,276,277,278,279,280,281,282,283,284},{2,30,45,58,81,92,104,130,156,167,197,215,259,268,269,270,271,273,274,275,276,277,278,279,280,281,282,283,284},{31,46,93,105,144,157,168,198,216,231,260,268,269,270,271,272,274,275,276,277,278,279,280,281,282,283,284},{18,47,59,82,94,106,158,169,183,199,232,246,261,268,269,270,271,272,273,275,276,277,278,279,280,281,282,283,284},{4,33,49,74,84,96,119,132,145,171,185,263,268,269,270,271,272,273,274,276,277,278,279,280,281,282,283,284},{5,20,34,85,97,120,133,146,160,172,201,218,233,247,268,269,270,271,272,273,274,275,277,278,279,280,281,282,283,284},{8,36,51,62,99,109,123,148,174,204,219,236,249,268,269,270,271,272,273,274,275,276,278,279,280,281,282,283,284},{9,23,52,63,110,136,175,188,205,220,237,250,268,269,270,271,272,273,274,275,276,277,279,280,281,282,283,284},{10,37,53,64,124,137,206,238,251,268,269,270,271,272,273,274,275,276,277,278,280,281,282,283,284},{11,24,38,54,65,88,100,111,138,149,161,189,207,221,239,252,265,268,269,270,271,272,273,274,275,276,277,278,279,281,282,283,284},{39,55,66,101,125,139,150,176,190,208,222,240,253,266,268,269,270,271,272,273,274,275,276,277,278,279,280,282,283,284},{13,26,40,113,151,178,192,210,224,241,255,268,269,270,271,272,273,274,275,276,277,278,279,280,281,283,284},{14,41,68,78,89,114,126,152,163,193,211,225,268,269,270,271,272,273,274,275,276,277,278,279,280,281,282,284},{15,42,69,79,90,102,141,164,179,194,212,226,242,256,268,269,270,271,272,273,274,275,276,277,278,279,280,281,282,283}];
weights=[236,498,483,637,338,453,630,585,557,222,239,236,650,217,314,636,248,455,498,255,659,359,400,582,247,345,251,660,328,351,588,330,546,695,672,489,220,507,374,534,223,300,661,206,239,262,677,234,260,653,321,228,354,463,392,353,610,579,659,438,698,534,507,480,365,433,316,444,478,277,677,329,381,217,422,417,620,534,514,564,213,678,368,650,697,463,495,522,452,304,493,628,604,291,593,484,287,548,643,681,656,520,603,502,257,686,575,661,481,650,647,574,642,259,228,308,621,695,640,567,612,494,680,358,312,474,331,313,317,568,250,620,563,266,645,477,597,578,368,444,438,493,291,316,542,506,429,412,626,423,332,685,383,206,544,240,397,533,391,237,300,643,277,306,237,332,546,613,689,229,266,515,479,644,684,683,395,654,344,359,663,332,694,474,277,554,519,516,522,429,257,688,451,216,223,219,302,529,208,378,278,476,567,425,333,550,306,381,391,485,361,351,324,325,532,556,468,390,237,527,600,370,324,354,635,265,532,284,612,476,289,521,636,519,472,221,615,466,566,702,618,480,338,401,522,215,691,386,312,234,253,553,232,225,261,308,445,354,386,275,299,626,607,460,450,378,543,280,514,268,356,567,622,486,658,410,237,211,270,203,301,301,273,557,201];
